90
150
105	1
104	6
103	7
102	1
101	1
100	5
99	6
98	4
97	6
96	4
95	7
94	4
93	7
92	3
91	6
90	5
89	3
88	3
87	2
86	7
85	5
84	8
83	1
82	4
81	4
80	6
79	3
78	4
77	8
76	7
75	6
74	9
73	3
72	3
71	1
70	4
69	5
68	5
67	4
66	3
65	1
64	4
63	2
62	5
61	4
60	7
59	8
58	5
57	9
56	4
55	4
54	7
53	2
52	1
50	6
49	7
48	6
47	4
46	2
45	2
44	3
43	6
42	7
41	6
40	4
39	2
38	5
37	2
36	6
35	2
34	3
33	4
32	6
31	3
30	3
29	4
28	4
27	4
26	3
25	5
24	3
23	4
22	4
21	5
20	3
19	6
18	7
17	7
16	3
15	5
